data/solutions/recovery/wellformed/intermediate/binding/wellformed_intermediate_instance41/31.sol
Elapsed time: 100.45
Upper bound: 263145.0
Planning weighted value: 1021838599.0
C[0]=263145.0
C[1]=263128.0
C[2]=263109.0
C[3]=263095.0
C[4]=263083.0
C[5]=263070.0
C[6]=263040.0
C[7]=263031.0
C[8]=262940.0
C[9]=262932.0
C[10]=262796.0
C[11]=0.0
y[0]=7
y[1]=0
y[2]=2
y[3]=10
y[4]=5
y[5]=5
y[6]=7
y[7]=2
y[8]=6
y[9]=6
y[10]=7
y[11]=10
y[12]=0
y[13]=8
y[14]=7
y[15]=7
y[16]=6
y[17]=9
y[18]=2
y[19]=0
y[20]=8
y[21]=10
y[22]=7
y[23]=5
y[24]=1
y[25]=6
y[26]=9
y[27]=2
y[28]=9
y[29]=10
y[30]=9
y[31]=2
y[32]=8
y[33]=2
y[34]=3
y[35]=3
y[36]=7
y[37]=9
y[38]=4
y[39]=2
y[40]=1
y[41]=5
y[42]=6
y[43]=10
y[44]=9
y[45]=8
y[46]=9
y[47]=8
y[48]=7
y[49]=4
y[50]=0
y[51]=4
y[52]=2
y[53]=9
y[54]=1
y[55]=6
y[56]=2
y[57]=5
y[58]=8
y[59]=10
y[60]=5
y[61]=1
y[62]=0
y[63]=9
y[64]=4
y[65]=1
y[66]=1
y[67]=10
y[68]=0
y[69]=0
y[70]=7
y[71]=2
y[72]=10
y[73]=9
y[74]=1
y[75]=0
y[76]=2
y[77]=8
y[78]=6
y[79]=5
y[80]=4
y[81]=3
y[82]=9
y[83]=3
y[84]=4
y[85]=8
y[86]=5
y[87]=2
y[88]=0
y[89]=3
y[90]=1
y[91]=5
y[92]=1
y[93]=1
y[94]=5
y[95]=5
y[96]=9
y[97]=2
y[98]=6
y[99]=6
y[100]=9
y[101]=1
y[102]=10
y[103]=6
y[104]=1
y[105]=8
y[106]=0
y[107]=6
y[108]=1
y[109]=6
y[110]=8
y[111]=2
y[112]=8
y[113]=0
y[114]=9
y[115]=3
y[116]=0
y[117]=10
y[118]=8
y[119]=6
y[120]=5
y[121]=6
y[122]=5
y[123]=5
y[124]=4
y[125]=1
y[126]=0
y[127]=6
y[128]=3
y[129]=4
y[130]=0
y[131]=3
y[132]=10
y[133]=8
y[134]=10
y[135]=4
y[136]=4
y[137]=10
y[138]=3
y[139]=2
y[140]=1
y[141]=4
y[142]=3
y[143]=7
y[144]=4
y[145]=8
y[146]=0
y[147]=2
y[148]=3
y[149]=2
y[150]=9
y[151]=0
y[152]=1
y[153]=10
y[154]=7
y[155]=4
y[156]=0
y[157]=4
y[158]=5
y[159]=2
y[160]=9
y[161]=7
y[162]=2
y[163]=8
y[164]=9
y[165]=10
y[166]=4
y[167]=7
y[168]=4
y[169]=4
y[170]=8
y[171]=3
y[172]=10
y[173]=4
y[174]=10
y[175]=10
y[176]=1
y[177]=8
y[178]=6
y[179]=7
y[180]=7
y[181]=0
y[182]=7
y[183]=4
y[184]=2
y[185]=3
y[186]=4
y[187]=9
y[188]=7
y[189]=1
y[190]=0
y[191]=3
y[192]=9
y[193]=10
y[194]=2
y[195]=0
y[196]=3
y[197]=1
y[198]=4
y[199]=2
y[200]=2
y[201]=2
y[202]=0
y[203]=1
y[204]=7
y[205]=4
y[206]=2
y[207]=0
y[208]=4
y[209]=4
y[210]=4
y[211]=7
y[212]=9
y[213]=3
y[214]=9
y[215]=9
y[216]=8
y[217]=0
y[218]=4
y[219]=1
y[220]=6
y[221]=6
y[222]=5
y[223]=6
y[224]=5
y[225]=5
y[226]=6
y[227]=9
y[228]=0
y[229]=10
y[230]=4
y[231]=0
y[232]=1
y[233]=5
y[234]=6
y[235]=9
y[236]=9
y[237]=2
y[238]=10
y[239]=4
y[240]=3
y[241]=7
y[242]=7
y[243]=10
y[244]=7
y[245]=6
y[246]=9
y[247]=9
y[248]=8
y[249]=0
y[250]=1
y[251]=4
y[252]=9
y[253]=1
y[254]=0
y[255]=5
y[256]=8
y[257]=1
y[258]=3
y[259]=2
y[260]=5
y[261]=3
y[262]=5
y[263]=4
y[264]=7
y[265]=0
y[266]=5
y[267]=0
y[268]=0
y[269]=5
y[270]=0
y[271]=7
y[272]=7
y[273]=10
y[274]=4
y[275]=7
y[276]=10
y[277]=3
y[278]=7
y[279]=10
y[280]=10
y[281]=3
y[282]=6
y[283]=3
y[284]=5
y[285]=8
y[286]=0
y[287]=5
y[288]=3
y[289]=0
y[290]=3
y[291]=1
y[292]=4
y[293]=6
y[294]=5
y[295]=3
y[296]=8
y[297]=9
y[298]=7
y[299]=10
y[300]=5
y[301]=7
y[302]=6
y[303]=7
y[304]=4
y[305]=1
y[306]=0
y[307]=9
y[308]=4
y[309]=0
y[310]=3
y[311]=9
