data/solutions/recovery/wellformed/intermediate/binding/wellformed_intermediate_instance41/31.log

Log started (V12.6.3.0) Fri Apr 20 18:46:26 2018

New value for default parallel thread count: 1

Problem '/tmp/tmpyHPIRQ.pyomo.lp' read.
Read time = 0.14 sec. (12.51 ticks)

Problem name         : /tmp/tmpyHPIRQ.pyomo.lp
Objective sense      : Minimize
Variables            :    3758  [Nneg: 1,  Binary: 3744,  General Integer: 13]
Objective nonzeros   :       1
Linear constraints   :     650  [Less: 324,  Equal: 326]
  Nonzeros           :  927373
  RHS nonzeros       :     313

Variables            : Min LB: 0.000000         Max UB: 1.000000       
Objective nonzeros   : Min   : 1.000000         Max   : 1.000000       
Linear constraints   :
  Nonzeros           : Min   : 1.000000         Max   : 19298.00       
  RHS nonzeros       : Min   : 1.000000         Max   : 1.000000       
Tried aggregator 2 times.
MIP Presolve eliminated 586 rows and 3284 columns.
Aggregator did 11 substitutions.
Reduced MIP has 53 rows, 463 columns, and 935 nonzeros.
Reduced MIP has 462 binaries, 1 generals, 0 SOSs, and 0 indicators.
Presolve time = 0.03 sec. (57.33 ticks)
Found incumbent of value 605180.000000 after 0.07 sec. (78.93 ticks)
Probing time = 0.00 sec. (0.49 ticks)
Tried aggregator 1 time.
Reduced MIP has 53 rows, 463 columns, and 935 nonzeros.
Reduced MIP has 462 binaries, 1 generals, 0 SOSs, and 0 indicators.
Presolve time = 0.00 sec. (0.73 ticks)
Probing time = 0.00 sec. (0.49 ticks)
Clique table members: 42.
MIP emphasis: balance optimality and feasibility.
MIP search method: dynamic search.
Parallel mode: none, using 1 thread.
Root relaxation solution time = 0.00 sec. (0.88 ticks)

        Nodes                                         Cuts/
   Node  Left     Objective  IInf  Best Integer    Best Bound    ItCnt     Gap

*     0+    0                       605180.0000   247417.0000            59.12%
      0     0   263033.5455    19   605180.0000   263033.5455       77   56.54%
*     0+    0                       267030.0000   263033.5455             1.50%
      0     0   263034.0000    25   267030.0000      Fract: 6       97    1.50%
*     0+    0                       266543.0000   263034.0000             1.32%
      0     0   263034.0000    24   266543.0000      Cuts: 11      127    1.32%
*     0+    0                       266240.0000   263034.0000             1.20%
*     0+    0                       265814.0000   263034.0000             1.05%
*     0+    0                       265087.0000   263034.0000             0.77%
*     0+    0                       264871.0000   263034.0000             0.69%
*     0+    0                       264610.0000   263034.0000             0.60%
*     0+    0                       264286.0000   263034.0000             0.47%
      0     2   263034.0000    18   264286.0000   263034.0000      127    0.47%
Elapsed time = 0.11 sec. (109.60 ticks, tree = 0.01 MB, solutions = 9)
*    10+   10                       263870.0000   263034.0000             0.32%
*   100+   88                       263537.0000   263034.0000             0.19%
    488   462   263034.0000    17   263537.0000   263034.0000     2345    0.19%
    489   463   263034.0000    17   263537.0000   263034.0000     2351    0.19%
    490   464   263034.0000    16   263537.0000   263034.0000     2356    0.19%
    491   465   263034.0000    19   263537.0000   263034.0000     2366    0.19%
    492   465   263034.0000    17   263537.0000   263034.0000     2370    0.19%
    493   465   263034.0000    17   263537.0000   263034.0000     2375    0.19%
    494   466   263034.0000    16   263537.0000   263034.0000     2379    0.19%
    495   466   263034.0000    16   263537.0000   263034.0000     2394    0.19%
    496   467   263034.0000    17   263537.0000   263034.0000     2401    0.19%
*   888+  480                       263417.0000   263034.0000             0.15%
*   938+  390                       263374.0000   263034.0000             0.13%
*  1088+  455                       263352.0000   263034.0000             0.12%
   1188   507        cutoff         263352.0000   263034.0000     5215    0.12%
Elapsed time = 1.02 sec. (1064.74 ticks, tree = 0.21 MB, solutions = 14)
*  1388+  629                       263320.0000   263034.0000             0.11%
*  1848+ 1006                       263260.0000   263034.0000             0.09%
   6378  5100   263105.3000    16   263260.0000   263034.0000    19461    0.09%
   6379  5101   263105.3000    16   263260.0000   263034.0000    19462    0.09%
   6380  5102   263105.3000    17   263260.0000   263034.0000    19469    0.09%
   6381  5103   263105.3000    17   263260.0000   263034.0000    19470    0.09%
   6382  5104   263105.3000    16   263260.0000   263034.0000    19471    0.09%
   6383  5105   263105.3000    18   263260.0000   263034.0000    19477    0.09%
   6384  5106   263105.3000    15   263260.0000   263034.0000    19479    0.09%
   6385  5107   263105.3000    15   263260.0000   263034.0000    19483    0.09%
   6386  5108   263105.3000    15   263260.0000   263034.0000    19485    0.09%
   6387  5109   263105.3000    15   263260.0000   263034.0000    19497    0.09%
Elapsed time = 1.87 sec. (2020.69 ticks, tree = 2.17 MB, solutions = 16)
*  6923  5055      integral     0   263233.0000   263034.0000    20903    0.08%
  19689 16849   263165.0000    14   263233.0000   263034.0000    49952    0.08%
  19690 16850   263211.7500    13   263233.0000   263034.0000    49955    0.08%
  19691 16851   263211.7500    13   263233.0000   263034.0000    49956    0.08%
  19692 16851   263211.7500    13   263233.0000   263034.0000    49957    0.08%
  19693 16852   263212.0000    12   263233.0000   263034.0000    49958    0.08%
  19694 16851        cutoff         263233.0000   263034.0000    49965    0.08%
  19695 16852   263212.0000    14   263233.0000   263034.0000    49970    0.08%
  19696 16853   263212.0000    13   263233.0000   263034.0000    49973    0.08%
  19697 16854   263212.0000    12   263233.0000   263034.0000    49979    0.08%
  19698 16855   263212.0000    12   263233.0000   263034.0000    49985    0.08%
Elapsed time = 2.72 sec. (2975.02 ticks, tree = 7.25 MB, solutions = 17)
  33631 29932   263216.0000    13   263233.0000   263034.0000    79834    0.08%
  33632 29933   263216.0000    12   263233.0000   263034.0000    79837    0.08%
  33633 29934   263216.0000    12   263233.0000   263034.0000    79838    0.08%
  33634 29935   263216.0000    12   263233.0000   263034.0000    79841    0.08%
  33635 29936   263216.0000    11   263233.0000   263034.0000    79843    0.08%
  33636 29937   263216.0000    11   263233.0000   263034.0000    79844    0.08%
  33637 29938   263216.0000    12   263233.0000   263034.0000    79846    0.08%
  33638 29939   263216.0000    14   263233.0000   263034.0000    79852    0.08%
  33639 29940   263216.0000    14   263233.0000   263034.0000    79853    0.08%
  33640 29941   263216.0000    14   263233.0000   263034.0000    79854    0.08%
Elapsed time = 3.57 sec. (3929.29 ticks, tree = 12.05 MB, solutions = 17)
  47260 42198   263145.7778    15   263233.0000   263034.0000   108246    0.08%
  47261 42199   263145.7778    15   263233.0000   263034.0000   108248    0.08%
  47262 42200   263145.7778    16   263233.0000   263034.0000   108251    0.08%
  47263 42201   263145.7778    15   263233.0000   263034.0000   108254    0.08%
  47264 42202   263145.7778    16   263233.0000   263034.0000   108257    0.08%
  47265 42203   263145.7778    15   263233.0000   263034.0000   108261    0.08%
  47266 42204   263145.7778    15   263233.0000   263034.0000   108262    0.08%
  47267 42205   263145.7778    15   263233.0000   263034.0000   108264    0.08%
  47268 42206   263145.7778    15   263233.0000   263034.0000   108265    0.08%
  47269 42207   263145.7778    15   263233.0000   263034.0000   108266    0.08%
Elapsed time = 4.42 sec. (4883.60 ticks, tree = 17.61 MB, solutions = 17)
  60611 53471        cutoff         263233.0000   263034.0000   134281    0.08%
  60612 53470    infeasible         263233.0000   263034.0000   134281    0.08%
  60613 53471   263135.2222    16   263233.0000   263034.0000   134290    0.08%
  60614 53472   263135.2222    15   263233.0000   263034.0000   134291    0.08%
  60615 53473   263135.2222    16   263233.0000   263034.0000   134292    0.08%
  60616 53474   263135.2222    16   263233.0000   263034.0000   134293    0.08%
  60617 53475   263135.2222    16   263233.0000   263034.0000   134294    0.08%
  60618 53474        cutoff         263233.0000   263034.0000   134296    0.08%
  60619 53475   263135.2222    15   263233.0000   263034.0000   134299    0.08%
  60620 53476   263159.8333    14   263233.0000   263034.0000   134300    0.08%
Elapsed time = 5.28 sec. (5837.91 ticks, tree = 22.04 MB, solutions = 17)
  71187 61539   263217.0000     8   263233.0000   263034.0000   154395    0.08%
  71188 61539   263217.0000     8   263233.0000   263034.0000   154396    0.08%
  71189 61538        cutoff         263233.0000   263034.0000   154397    0.08%
  71190 61539   263231.5556    14   263233.0000   263034.0000   154401    0.08%
  71191 61540   263231.5556    14   263233.0000   263034.0000   154402    0.08%
  71192 61541   263231.5556    14   263233.0000   263034.0000   154404    0.08%
  71193 61540        cutoff         263233.0000   263034.0000   154406    0.08%
  71194 61539        cutoff         263233.0000   263034.0000   154408    0.08%
  71195 61540   263231.5556    14   263233.0000   263034.0000   154413    0.08%
  71196 61541   263231.5556    14   263233.0000   263034.0000   154414    0.08%
Elapsed time = 6.16 sec. (6792.68 ticks, tree = 25.32 MB, solutions = 17)
  83589 71722   263034.0000    16   263233.0000   263034.0000   178434    0.08%
  83590 71723   263034.0000    16   263233.0000   263034.0000   178435    0.08%
  83591 71724   263034.0000    16   263233.0000   263034.0000   178437    0.08%
  83592 71725   263034.0000    16   263233.0000   263034.0000   178438    0.08%
  83593 71726   263034.0000    15   263233.0000   263034.0000   178440    0.08%
  83594 71727   263034.0000    16   263233.0000   263034.0000   178441    0.08%
  83595 71728   263034.0000    16   263233.0000   263034.0000   178447    0.08%
  83596 71729   263034.0000    16   263233.0000   263034.0000   178449    0.08%
  83597 71730   263034.0000    16   263233.0000   263034.0000   178450    0.08%
  83598 71731   263034.0000    16   263233.0000   263034.0000   178451    0.08%
Elapsed time = 7.01 sec. (7747.13 ticks, tree = 31.27 MB, solutions = 17)
  97047 83106   263064.0000    14   263233.0000   263034.0000   204352    0.08%
  97048 83107   263064.0000    14   263233.0000   263034.0000   204353    0.08%
  97049 83108   263064.0000    14   263233.0000   263034.0000   204354    0.08%
  97050 83109   263064.0000    14   263233.0000   263034.0000   204355    0.08%
  97051 83110   263064.0000    14   263233.0000   263034.0000   204356    0.08%
  97052 83111   263070.5000    13   263233.0000   263034.0000   204357    0.08%
  97053 83112   263070.5000    13   263233.0000   263034.0000   204358    0.08%
  97054 83113   263070.5000    13   263233.0000   263034.0000   204359    0.08%
  97055 83114   263070.5000    13   263233.0000   263034.0000   204361    0.08%
  97056 83115   263070.5000    13   263233.0000   263034.0000   204362    0.08%
Elapsed time = 7.86 sec. (8701.35 ticks, tree = 35.79 MB, solutions = 17)
*107419+88833                       263228.0000   263034.0000             0.07%
 109636 90721   263202.5000    15   263228.0000   263034.0000   227901    0.07%
 109637 90722   263202.5000    15   263228.0000   263034.0000   227902    0.07%
 109638 90723   263202.5000    15   263228.0000   263034.0000   227905    0.07%
 109639 90724   263202.5000    15   263228.0000   263034.0000   227906    0.07%
 109640 90725   263202.5000    15   263228.0000   263034.0000   227907    0.07%
 109641 90726   263202.5000    15   263228.0000   263034.0000   227909    0.07%
 109642 90727   263202.5000    15   263228.0000   263034.0000   227910    0.07%
 109643 90728   263202.5000    15   263228.0000   263034.0000   227911    0.07%
 109644 90729   263202.5000    15   263228.0000   263034.0000   227913    0.07%
 142486 116116        cutoff         263228.0000   263034.0000   294600    0.07%
Elapsed time = 11.34 sec. (12516.28 ticks, tree = 48.92 MB, solutions = 18)
 177827 139587   263034.0000    16   263228.0000   263034.0000   370497    0.07%
 177828 139588   263034.0000    15   263228.0000   263034.0000   370498    0.07%
 177829 139589   263034.0000    14   263228.0000   263034.0000   370499    0.07%
 177830 139590   263034.0000    15   263228.0000   263034.0000   370500    0.07%
 177831 139591   263034.0000    15   263228.0000   263034.0000   370501    0.07%
 177832 139592   263034.0000    15   263228.0000   263034.0000   370502    0.07%
 177833 139593   263034.0000    17   263228.0000   263034.0000   370506    0.07%
 177834 139594   263034.0000    15   263228.0000   263034.0000   370511    0.07%
 177835 139595   263034.0000    15   263228.0000   263034.0000   370514    0.07%
 177836 139596   263034.0000    15   263228.0000   263034.0000   370515    0.07%
Elapsed time = 14.89 sec. (16331.64 ticks, tree = 59.99 MB, solutions = 18)
*178823 106681      integral     0   263168.0000   263034.0000   372711    0.05%
*178923+98277                       263154.0000   263034.0000             0.05%
 212319 118448   263034.0000    16   263154.0000   263034.0000   439906    0.05%
 212320 118449   263034.0000    14   263154.0000   263034.0000   439907    0.05%
 212321 118450   263034.0000    17   263154.0000   263034.0000   439913    0.05%
 212322 118449    infeasible         263154.0000   263034.0000   439913    0.05%
 212323 118448    infeasible         263154.0000   263034.0000   439913    0.05%
 212324 118447    infeasible         263154.0000   263034.0000   439913    0.05%
 212325 118448   263132.1111    14   263154.0000   263034.0000   439922    0.05%
 212326 118449   263132.1111    14   263154.0000   263034.0000   439923    0.05%
 212327 118450   263132.1111    14   263154.0000   263034.0000   439925    0.05%
 212328 118451   263132.1111    16   263154.0000   263034.0000   439928    0.05%
Elapsed time = 18.52 sec. (20148.96 ticks, tree = 51.32 MB, solutions = 20)
 250200 136199   263034.0000    16   263154.0000   263034.0000   515314    0.05%
 250201 136200   263034.0000    17   263154.0000   263034.0000   515316    0.05%
 250202 136201   263034.0000    16   263154.0000   263034.0000   515319    0.05%
 250203 136202   263034.0000    16   263154.0000   263034.0000   515320    0.05%
 250204 136203   263034.0000    16   263154.0000   263034.0000   515322    0.05%
 250205 136204   263034.0000    16   263154.0000   263034.0000   515323    0.05%
 250206 136205   263034.0000    17   263154.0000   263034.0000   515325    0.05%
 250207 136206   263034.0000    17   263154.0000   263034.0000   515327    0.05%
 250208 136207   263034.0000    17   263154.0000   263034.0000   515332    0.05%
 250209 136208   263034.0000    17   263154.0000   263034.0000   515333    0.05%
Elapsed time = 22.08 sec. (23964.32 ticks, tree = 58.34 MB, solutions = 20)
 286498 160664   263072.6667    16   263154.0000   263034.0000   595179    0.05%
 286499 160665   263133.6250    13   263154.0000   263034.0000   595181    0.05%
 286500 160666   263133.6250    14   263154.0000   263034.0000   595182    0.05%
 286501 160667   263133.6250    14   263154.0000   263034.0000   595183    0.05%
 286502 160668   263133.6250    14   263154.0000   263034.0000   595184    0.05%
 286503 160669   263134.4286    12   263154.0000   263034.0000   595186    0.05%
 286504 160670   263134.4286    12   263154.0000   263034.0000   595187    0.05%
 286505 160670   263134.4286    12   263154.0000   263034.0000   595188    0.05%
 286506 160671   263134.4286    12   263154.0000   263034.0000   595189    0.05%
 286507 160672   263134.4286    12   263154.0000   263034.0000   595190    0.05%
Elapsed time = 25.61 sec. (27779.55 ticks, tree = 69.17 MB, solutions = 20)
 326301 190649        cutoff         263154.0000   263034.0000   678489    0.05%
 326302 190649   263034.0000    15   263154.0000   263034.0000   678495    0.05%
 326303 190650   263034.0000    15   263154.0000   263034.0000   678497    0.05%
 326304 190651   263034.0000    15   263154.0000   263034.0000   678498    0.05%
 326305 190652   263034.0000    16   263154.0000   263034.0000   678500    0.05%
 326306 190651        cutoff         263154.0000   263034.0000   678503    0.05%
 326307 190650        cutoff         263154.0000   263034.0000   678505    0.05%
 326308 190649        cutoff         263154.0000   263034.0000   678508    0.05%
 326309 190648    infeasible         263154.0000   263034.0000   678508    0.05%
 326310 190649   263034.0000    15   263154.0000   263034.0000   678513    0.05%
Elapsed time = 29.02 sec. (31594.87 ticks, tree = 82.26 MB, solutions = 20)
 364746 218028   263127.4444    14   263154.0000   263034.0000   754993    0.05%
 364747 218029   263127.4444    14   263154.0000   263034.0000   754994    0.05%
 364748 218030   263127.4444    14   263154.0000   263034.0000   754995    0.05%
 364749 218031   263127.4444    14   263154.0000   263034.0000   754996    0.05%
 364750 218032   263127.4444    14   263154.0000   263034.0000   754997    0.05%
 364751 218031        cutoff         263154.0000   263034.0000   754998    0.05%
 364752 218030        cutoff         263154.0000   263034.0000   755000    0.05%
 364753 218031   263034.0000    15   263154.0000   263034.0000   755003    0.05%
 364754 218032   263034.0000    15   263154.0000   263034.0000   755005    0.05%
 364755 218033   263034.0000    15   263154.0000   263034.0000   755007    0.05%
Elapsed time = 32.47 sec. (35410.29 ticks, tree = 93.03 MB, solutions = 20)
 405087 246901   263034.0000    15   263154.0000   263034.0000   838959    0.05%
 405088 246902   263034.0000    15   263154.0000   263034.0000   838960    0.05%
 405089 246903   263079.5556    14   263154.0000   263034.0000   838961    0.05%
 405090 246902        cutoff         263154.0000   263034.0000   838966    0.05%
 405091 246903   263079.5556    15   263154.0000   263034.0000   838968    0.05%
 405092 246904   263079.5556    16   263154.0000   263034.0000   838970    0.05%
 405093 246905   263079.5556    16   263154.0000   263034.0000   838971    0.05%
 405094 246906   263079.5556    15   263154.0000   263034.0000   838973    0.05%
 405095 246907   263079.5556    15   263154.0000   263034.0000   838975    0.05%
 405096 246908   263079.5556    15   263154.0000   263034.0000   838976    0.05%
Elapsed time = 35.94 sec. (39225.60 ticks, tree = 105.89 MB, solutions = 20)
 442751 274122   263082.2857    13   263154.0000   263034.0000   916014    0.05%
 442752 274122   263082.2857    13   263154.0000   263034.0000   916016    0.05%
 442753 274123   263082.2857    13   263154.0000   263034.0000   916018    0.05%
 442754 274124   263082.2857    13   263154.0000   263034.0000   916019    0.05%
 442755 274123        cutoff         263154.0000   263034.0000   916020    0.05%
 442756 274123   263084.8333    11   263154.0000   263034.0000   916022    0.05%
 442757 274123   263084.8333    11   263154.0000   263034.0000   916023    0.05%
 442758 274123   263084.8333    11   263154.0000   263034.0000   916024    0.05%
 442759 274122        cutoff         263154.0000   263034.0000   916026    0.05%
 442760 274123   263034.0000    16   263154.0000   263034.0000   916031    0.05%
Elapsed time = 39.48 sec. (43041.04 ticks, tree = 118.33 MB, solutions = 20)
 477280 297651   263034.0000    15   263154.0000   263034.0000   985005    0.05%
 477281 297652   263034.0000    15   263154.0000   263034.0000   985007    0.05%
 477282 297653   263034.0000    15   263154.0000   263034.0000   985008    0.05%
 477283 297652        cutoff         263154.0000   263034.0000   985011    0.05%
 477284 297653   263060.7500    14   263154.0000   263034.0000   985013    0.05%
 477285 297653   263060.7500    14   263154.0000   263034.0000   985014    0.05%
 477286 297652        cutoff         263154.0000   263034.0000   985016    0.05%
 477287 297653   263034.0000    15   263154.0000   263034.0000   985017    0.05%
 477288 297654   263034.0000    15   263154.0000   263034.0000   985019    0.05%
 477289 297655   263034.0000    15   263154.0000   263034.0000   985020    0.05%
Elapsed time = 42.99 sec. (46857.53 ticks, tree = 127.56 MB, solutions = 20)
 512042 320653   263145.0000     8   263154.0000   263034.0000  1057031    0.05%
 512043 320654   263145.0000     6   263154.0000   263034.0000  1057032    0.05%
 512044 320655   263145.0000     7   263154.0000   263034.0000  1057034    0.05%
 512045 320656   263145.0000     7   263154.0000   263034.0000  1057035    0.05%
 512046 320657   263145.0000     7   263154.0000   263034.0000  1057036    0.05%
 512047 320658   263145.0000     8   263154.0000   263034.0000  1057037    0.05%
 512048 320659   263145.0000     8   263154.0000   263034.0000  1057041    0.05%
 512049 320660   263145.0000     8   263154.0000   263034.0000  1057043    0.05%
 512050 320661   263145.0000     7   263154.0000   263034.0000  1057044    0.05%
 512051 320662   263145.0000     8   263154.0000   263034.0000  1057045    0.05%
Elapsed time = 46.50 sec. (50672.72 ticks, tree = 136.63 MB, solutions = 20)
*519888+304168                       263145.0000   263034.0000             0.04%
 549334 326881   263118.0000    10   263145.0000   263034.0000  1134738    0.04%
 549335 326882   263118.0000    10   263145.0000   263034.0000  1134739    0.04%
 549336 326883   263118.0000    10   263145.0000   263034.0000  1134740    0.04%
 549337 326884   263118.0000    10   263145.0000   263034.0000  1134741    0.04%
 549338 326885   263118.0000    11   263145.0000   263034.0000  1134743    0.04%
 549339 326886   263118.0000    11   263145.0000   263034.0000  1134751    0.04%
 549340 326887   263118.0000    10   263145.0000   263034.0000  1134758    0.04%
 549341 326887   263118.0000    12   263145.0000   263034.0000  1134760    0.04%
 549342 326886        cutoff         263145.0000   263034.0000  1134763    0.04%
 549343 326885        cutoff         263145.0000   263034.0000  1134765    0.04%
Elapsed time = 50.04 sec. (54488.13 ticks, tree = 141.21 MB, solutions = 21)
 586999 352492   263068.3333    16   263145.0000   263034.0000  1213498    0.04%
 587000 352493   263068.3333    16   263145.0000   263034.0000  1213499    0.04%
 587001 352493   263068.3333    16   263145.0000   263034.0000  1213500    0.04%
 587002 352492        cutoff         263145.0000   263034.0000  1213502    0.04%
 587003 352493   263034.0000    17   263145.0000   263034.0000  1213513    0.04%
 587004 352494   263034.0000    17   263145.0000   263034.0000  1213514    0.04%
 587005 352495   263034.0000    17   263145.0000   263034.0000  1213515    0.04%
 587006 352496   263034.0000    16   263145.0000   263034.0000  1213519    0.04%
 587007 352497   263034.0000    17   263145.0000   263034.0000  1213520    0.04%
 587008 352498   263034.0000    17   263145.0000   263034.0000  1213521    0.04%
Elapsed time = 53.51 sec. (58304.13 ticks, tree = 151.42 MB, solutions = 21)
 623653 379332   263034.0000    15   263145.0000   263034.0000  1287710    0.04%
 623654 379333   263034.0000    15   263145.0000   263034.0000  1287711    0.04%
 623655 379334   263034.0000    16   263145.0000   263034.0000  1287714    0.04%
 623656 379335   263034.0000    16   263145.0000   263034.0000  1287716    0.04%
 623657 379336   263034.0000    16   263145.0000   263034.0000  1287718    0.04%
 623658 379337   263034.0000    16   263145.0000   263034.0000  1287719    0.04%
 623659 379338   263089.3333    15   263145.0000   263034.0000  1287721    0.04%
 623660 379339   263089.3333    16   263145.0000   263034.0000  1287723    0.04%
 623661 379340   263089.3333    16   263145.0000   263034.0000  1287724    0.04%
 623662 379341   263089.3333    16   263145.0000   263034.0000  1287725    0.04%
Elapsed time = 56.94 sec. (62119.41 ticks, tree = 161.84 MB, solutions = 21)
 657189 397754   263034.0000    16   263145.0000   263034.0000  1358540    0.04%
 657190 397755   263034.0000    16   263145.0000   263034.0000  1358542    0.04%
 657191 397756   263034.0000    15   263145.0000   263034.0000  1358543    0.04%
 657192 397757   263034.0000    15   263145.0000   263034.0000  1358544    0.04%
 657193 397758   263034.0000    16   263145.0000   263034.0000  1358545    0.04%
 657194 397759   263034.0000    16   263145.0000   263034.0000  1358546    0.04%
 657195 397760   263034.0000    16   263145.0000   263034.0000  1358547    0.04%
 657196 397761   263053.3333    15   263145.0000   263034.0000  1358548    0.04%
 657197 397762   263053.3333    15   263145.0000   263034.0000  1358550    0.04%
 657198 397763   263053.3333    15   263145.0000   263034.0000  1358551    0.04%
Elapsed time = 60.46 sec. (65935.18 ticks, tree = 171.81 MB, solutions = 21)
 689743 413662   263034.0000    15   263145.0000   263034.0000  1425889    0.04%
 689744 413663   263034.0000    14   263145.0000   263034.0000  1425890    0.04%
 689745 413664   263034.0000    14   263145.0000   263034.0000  1425891    0.04%
 689746 413665   263034.0000    15   263145.0000   263034.0000  1425892    0.04%
 689747 413666   263034.0000    15   263145.0000   263034.0000  1425893    0.04%
 689748 413667   263034.0000    15   263145.0000   263034.0000  1425894    0.04%
 689749 413667   263065.2857    15   263145.0000   263034.0000  1425899    0.04%
 689750 413666    infeasible         263145.0000   263034.0000  1425899    0.04%
 689751 413665        cutoff         263145.0000   263034.0000  1425902    0.04%
 689752 413664    infeasible         263145.0000   263034.0000  1425902    0.04%
Elapsed time = 64.07 sec. (69750.52 ticks, tree = 178.03 MB, solutions = 21)
 722144 434532   263034.0000    17   263145.0000   263034.0000  1495764    0.04%
 722145 434533   263034.0000    17   263145.0000   263034.0000  1495769    0.04%
 722146 434534   263034.0000    17   263145.0000   263034.0000  1495771    0.04%
 722147 434535   263034.0000    16   263145.0000   263034.0000  1495776    0.04%
 722148 434536   263034.0000    16   263145.0000   263034.0000  1495778    0.04%
 722149 434537   263034.0000    16   263145.0000   263034.0000  1495782    0.04%
 722150 434538   263041.8889    15   263145.0000   263034.0000  1495783    0.04%
 722151 434539   263041.8889    15   263145.0000   263034.0000  1495784    0.04%
 722152 434540   263041.8889    15   263145.0000   263034.0000  1495785    0.04%
 722153 434541   263041.8889    15   263145.0000   263034.0000  1495786    0.04%
Elapsed time = 67.57 sec. (73565.82 ticks, tree = 186.22 MB, solutions = 21)
 763485 464094   263034.0000    15   263145.0000   263034.0000  1579621    0.04%
 763486 464095   263034.0000    14   263145.0000   263034.0000  1579623    0.04%
 763487 464096   263054.0000    13   263145.0000   263034.0000  1579627    0.04%
 763488 464097   263054.0000    13   263145.0000   263034.0000  1579628    0.04%
 763489 464098   263061.1429    12   263145.0000   263034.0000  1579629    0.04%
 763490 464099   263061.1429    12   263145.0000   263034.0000  1579631    0.04%
 763491 464100   263061.1429    12   263145.0000   263034.0000  1579632    0.04%
 763492 464099    infeasible         263145.0000   263034.0000  1579632    0.04%
 763493 464100   263061.1429    12   263145.0000   263034.0000  1579634    0.04%
 763494 464099    infeasible         263145.0000   263034.0000  1579634    0.04%
Elapsed time = 70.99 sec. (77381.18 ticks, tree = 197.89 MB, solutions = 21)
 794575 482789   263107.3333    14   263145.0000   263034.0000  1648015    0.04%
 794576 482789   263107.3333    15   263145.0000   263034.0000  1648019    0.04%
 794577 482790   263107.3333    15   263145.0000   263034.0000  1648021    0.04%
 794578 482791   263107.3333    15   263145.0000   263034.0000  1648022    0.04%
 794579 482792   263107.3333    15   263145.0000   263034.0000  1648023    0.04%
 794580 482791        cutoff         263145.0000   263034.0000  1648024    0.04%
 794581 482790        cutoff         263145.0000   263034.0000  1648026    0.04%
 794582 482791   263106.3333    14   263145.0000   263034.0000  1648037    0.04%
 794583 482792   263106.3333    14   263145.0000   263034.0000  1648038    0.04%
 794584 482792   263106.3333    14   263145.0000   263034.0000  1648039    0.04%
Elapsed time = 74.50 sec. (81198.53 ticks, tree = 208.71 MB, solutions = 21)
 827146 501699   263143.5000    14   263145.0000   263034.0000  1720011    0.04%
 827147 501700   263143.5000    13   263145.0000   263034.0000  1720016    0.04%
 827148 501701   263143.5000    14   263145.0000   263034.0000  1720017    0.04%
 827149 501702   263143.5000    13   263145.0000   263034.0000  1720019    0.04%
 827150 501703   263143.5000    14   263145.0000   263034.0000  1720020    0.04%
 827151 501704   263143.5000    13   263145.0000   263034.0000  1720022    0.04%
 827152 501705   263143.5000    14   263145.0000   263034.0000  1720023    0.04%
 827153 501706   263143.5000    13   263145.0000   263034.0000  1720025    0.04%
 827154 501706   263143.5000    14   263145.0000   263034.0000  1720026    0.04%
 827155 501705        cutoff         263145.0000   263034.0000  1720028    0.04%
Elapsed time = 78.00 sec. (85013.82 ticks, tree = 216.32 MB, solutions = 21)
 858319 519731   263123.1667    10   263145.0000   263034.0000  1787450    0.04%
 858320 519730        cutoff         263145.0000   263034.0000  1787454    0.04%
 858321 519731   263137.3333    14   263145.0000   263034.0000  1787457    0.04%
 858322 519731   263137.3333    14   263145.0000   263034.0000  1787458    0.04%
 858323 519730        cutoff         263145.0000   263034.0000  1787460    0.04%
 858324 519729        cutoff         263145.0000   263034.0000  1787469    0.04%
 858325 519728        cutoff         263145.0000   263034.0000  1787476    0.04%
 858326 519727        cutoff         263145.0000   263034.0000  1787479    0.04%
 858327 519726    infeasible         263145.0000   263034.0000  1787479    0.04%
 858328 519725    infeasible         263145.0000   263034.0000  1787479    0.04%
Elapsed time = 81.48 sec. (88831.01 ticks, tree = 223.62 MB, solutions = 21)
 899095 548502   263060.0000    12   263145.0000   263034.0000  1870006    0.04%
 899096 548502   263060.0000    13   263145.0000   263034.0000  1870007    0.04%
 899097 548502   263060.0000    13   263145.0000   263034.0000  1870008    0.04%
 899098 548502   263060.0000    13   263145.0000   263034.0000  1870009    0.04%
 899099 548502   263060.0000    13   263145.0000   263034.0000  1870010    0.04%
 899100 548502   263060.0000    13   263145.0000   263034.0000  1870011    0.04%
 899101 548502   263060.0000    13   263145.0000   263034.0000  1870012    0.04%
 899102 548503   263107.0000     9   263145.0000   263034.0000  1870014    0.04%
 899103 548504   263107.0000     9   263145.0000   263034.0000  1870016    0.04%
 899104 548505   263107.0000     9   263145.0000   263034.0000  1870018    0.04%
Elapsed time = 85.04 sec. (92646.25 ticks, tree = 234.97 MB, solutions = 21)
 935315 570171   263067.3333    15   263145.0000   263034.0000  1941795    0.04%
 935316 570172   263067.3333    15   263145.0000   263034.0000  1941796    0.04%
 935317 570173   263067.3333    15   263145.0000   263034.0000  1941797    0.04%
 935318 570174   263089.8571    13   263145.0000   263034.0000  1941799    0.04%
 935319 570173    infeasible         263145.0000   263034.0000  1941799    0.04%
 935320 570172    infeasible         263145.0000   263034.0000  1941799    0.04%
 935321 570171        cutoff         263145.0000   263034.0000  1941801    0.04%
 935322 570172   263097.7778    13   263145.0000   263034.0000  1941805    0.04%
 935323 570173   263097.7778    14   263145.0000   263034.0000  1941806    0.04%
 935324 570174   263097.7778    14   263145.0000   263034.0000  1941807    0.04%
Elapsed time = 88.54 sec. (96464.22 ticks, tree = 247.60 MB, solutions = 21)
 962288 586354   263132.8571    14   263145.0000   263034.0000  1995965    0.04%
 962289 586355   263132.8571    14   263145.0000   263034.0000  1995968    0.04%
 962290 586356   263132.8571    14   263145.0000   263034.0000  1995971    0.04%
 962291 586357   263132.8571    14   263145.0000   263034.0000  1995974    0.04%
 962292 586358   263132.8571    14   263145.0000   263034.0000  1995977    0.04%
 962293 586359   263132.8571    14   263145.0000   263034.0000  1995980    0.04%
 962294 586360   263132.8571    14   263145.0000   263034.0000  1995981    0.04%
 962295 586361   263132.8571    14   263145.0000   263034.0000  1995982    0.04%
 962296 586360        cutoff         263145.0000   263034.0000  1995983    0.04%
 962297 586360   263132.8571    14   263145.0000   263034.0000  1995986    0.04%
Elapsed time = 92.08 sec. (100336.99 ticks, tree = 254.14 MB, solutions = 21)
 1001075 611353   263131.0000     7   263145.0000   263034.0000  2075574    0.04%
 1001076 611354   263131.0000     8   263145.0000   263034.0000  2075577    0.04%
 1001077 611355   263131.0000     7   263145.0000   263034.0000  2075581    0.04%
 1001078 611356   263131.0000     7   263145.0000   263034.0000  2075582    0.04%
 1001079 611357   263131.0000     8   263145.0000   263034.0000  2075587    0.04%
 1001080 611358   263131.0000     6   263145.0000   263034.0000  2075588    0.04%
 1001081 611359   263131.0000     6   263145.0000   263034.0000  2075590    0.04%
 1001082 611360   263131.0000     6   263145.0000   263034.0000  2075591    0.04%
 1001083 611361   263131.0000     7   263145.0000   263034.0000  2075594    0.04%
 1001084 611362   263131.0000     6   263145.0000   263034.0000  2075595    0.04%
Elapsed time = 95.57 sec. (104152.36 ticks, tree = 264.34 MB, solutions = 21)
 1034028 628216   263034.0000    13   263145.0000   263034.0000  2146960    0.04%
 1034029 628215        cutoff         263145.0000   263034.0000  2146962    0.04%
 1034030 628214    infeasible         263145.0000   263034.0000  2146962    0.04%
 1034031 628215   263097.1667    13   263145.0000   263034.0000  2146969    0.04%
 1034032 628214        cutoff         263145.0000   263034.0000  2146970    0.04%
 1034033 628213    infeasible         263145.0000   263034.0000  2146970    0.04%
 1034034 628212    infeasible         263145.0000   263034.0000  2146970    0.04%
 1034035 628211        cutoff         263145.0000   263034.0000  2146972    0.04%
 1034036 628210    infeasible         263145.0000   263034.0000  2146972    0.04%
 1034037 628209    infeasible         263145.0000   263034.0000  2146972    0.04%
Elapsed time = 99.11 sec. (107967.95 ticks, tree = 271.46 MB, solutions = 21)

Mixed integer rounding cuts applied:  1

Root node processing (before b&c):
  Real time             =    0.11 sec. (110.15 ticks)
Sequential b&c:
  Real time             =   99.89 sec. (108994.01 ticks)
                          ------------
Total (root+branch&cut) =  100.00 sec. (109104.15 ticks)

Solution pool: 21 solutions saved.

MIP - Time limit exceeded, integer feasible:  Objective =  2.6314500000e+05
Current MIP best bound =  2.6303400000e+05 (gap = 111, 0.04%)
Solution time =  100.00 sec.  Iterations = 2167834  Nodes = 1043772 (633135)
Deterministic time = 109104.16 ticks  (1091.03 ticks/sec)


Incumbent solution written to file '/tmp/tmpRHw7Af.cplex.sol'.
